100 500 200 500 10 100
79 244
78 237
53 487
33 202
34 220
100 420
27 417
13 471
30 496
34 352
83 293
49 428
52 421
94 484
52 265
75 330
38 435
21 261
92 250
22 451
24 318
79 209
87 267
21 322
58 311
52 459
68 258
52 442
81 245
13 219
69 248
69 317
84 467
94 352
77 391
54 485
43 422
87 243
68 371
52 449
96 236
19 284
48 491
36 473
22 349
68 243
17 290
57 329
33 239
28 471
18 232
54 388
58 346
33 340
91 495
95 448
32 444
12 224
27 456
15 368
68 437
91 401
25 221
82 482
88 210
11 388
35 305
10 446
12 406
98 417
62 323
42 329
58 294
17 400
89 298
85 252
11 377
47 461
75 483
65 356
82 292
75 485
38 269
89 349
24 466
49 323
95 379
24 304
41 254
98 471
61 220
93 286
19 476
42 244
21 335
63 349
80 393
25 274
28 212
64 334
